db/data/840378611269523963219729087134517642.z3.out
sat
-------------------
607.636333632
